%nprocshared=4
%mem=8GB
%chk=Full_pyrrole_system_DFT_B3LYP_321g_relaxed_scan.chk
# opt=modredundant b3lyp/3-21g geom=connectivity

Full pyrrole system relaxed scan of N-CO2 bond

-1 1
 C                  0.60348246    1.85634787    0.00000900
 C                  2.00523246    1.85634787    0.00000900
 C                  2.42923046    3.22714387    0.00000900
 C                  1.27217346    4.01859687   -0.00009500
 N                  0.16375546    3.17685587    0.00000000
 H                  2.64960546    0.98364187    0.00003400
 H                  3.45379346    3.58363587   -0.00001600
 C                  1.11817512    5.55087768   -0.00030283
 H                  0.58234684    5.85536999   -0.87498706
 H                  2.08625588    6.00663630    0.00162156
 C                  0.41794696    6.43481046    1.04847902
 C                  0.94555934    6.81916660    2.32627067
 C                 -0.85341290    7.01422678    0.93402548
 H                  1.91195594    6.54119224    2.73325985
 N                 -1.11419619    7.73513882    2.09566065
 H                 -1.57688110    6.96413620    0.12130753
 H                 -1.93660749    8.24242321    2.28281318
 N                 -0.02105623    7.62051961    2.94948071
 C                 -0.38841884    0.67832759    0.00014755
 H                  0.12608675   -0.22118313   -0.26643162
 H                 -1.16692993    0.86749320   -0.70910336
 C                 -1.29101695    0.04297686    1.07404052
 C                 -2.69163711    0.08241227    1.11417873
 C                 -0.85473614   -0.70045872    2.22113188
 N                 -3.11884790   -0.60988101    2.24348035
 H                 -3.40033723    0.54671102    0.42958121
 H                  0.17228519   -0.91949887    2.49327980
 H                 -4.05573224   -0.73837213    2.51635694
 N                 -2.00356745   -1.09016783    2.92362186
 C                 -0.69609292    3.44267672   -0.00019843
 O                 -1.35272396    3.73209590    1.23672203
 O                 -1.32249999    3.56053861   -1.08522991

 1 2 2.0 5 1.0 19 1.0
 2 3 1.0 6 1.0
 3 4 2.0 7 1.0
 4 5 1.0 8 1.0
 5 30 1.0
 6
 7
 8 9 1.0 10 1.0 11 1.0
 9
 10
 11 12 1.0 13 2.0
 12 14 1.0 18 2.0
 13 15 1.0 16 1.0
 14
 15 17 1.0 18 1.0
 16
 17
 18
 19 20 1.0 21 1.0 22 1.0
 20
 21
 22 23 2.0 24 1.0
 23 25 1.0 26 1.0
 24 27 1.0 29 2.0
 25 28 1.0 29 1.0
 26
 27
 28
 29
 30 31 1.0 32 2.0
 31
 32

B 5 30 S 20 0.10
