%chk=only_tpp_opt_DFT_B3LYP_321g.chk
# opt freq b3lyp/3-21g geom=connectivity

Title Card Required

-1 1
 C                  0.94983041    0.51954626   -0.01740200
 C                  2.35158041    0.51954626   -0.01740200
 C                  2.77557841    1.89034226   -0.01740200
 C                  1.61852141    2.68179526   -0.01750600
 N                  0.51010341    1.84005426   -0.01741100
 H                  2.99595341   -0.35315974   -0.01737700
 H                  3.80014141    2.24683426   -0.01742700
 C                  1.46452307    4.21407607   -0.01771384
 H                  0.92689118    4.51862424    0.85584347
 H                  2.43260577    4.66983463   -0.01766987
 C                  0.69099750    4.65208300   -1.27525435
 C                  1.21839391    4.75556604   -2.60566792
 C                 -0.65922332    5.02428422   -1.33482556
 H                  2.23619670    4.53976667   -2.91281683
 N                 -0.96802659    5.34898740   -2.65252309
 H                 -1.40746967    5.07942877   -0.54519764
 H                 -1.84834650    5.64462040   -2.97865474
 C                 -0.04207089   -0.65847402   -0.01726345
 H                  0.47274606   -1.55818436    0.24803792
 H                 -0.81975098   -0.46984115    0.69304024
 C                 -0.65564544   -0.81307387   -1.42126671
 C                 -1.99166909   -0.58084470   -1.77625051
 C                  0.03426135   -1.22202407   -2.61107524
 N                 -2.13547452   -0.83428389   -3.13720231
 H                 -2.83405504   -0.25863727   -1.16545493
 H                  1.08510136   -1.47987280   -2.68895460
 H                 -2.97115266   -0.75053457   -3.65038060
 N                  0.17272994    5.18738230   -3.43333007
 N                 -0.90355989   -1.22599057   -3.65302263

 1 2 2.0 5 1.0 18 1.0
 2 3 1.0 6 1.0
 3 4 2.0 7 1.0
 4 5 1.0 8 1.0
 5
 6
 7
 8 9 1.0 10 1.0 11 1.0
 9
 10
 11 12 1.0 13 2.0
 12 14 1.0 28 2.0
 13 15 1.0 16 1.0
 14
 15 17 1.0 28 1.0
 16
 17
 18 19 1.0 20 1.0 21 1.0
 19
 20
 21 22 2.0 23 1.0
 22 24 1.0 25 1.0
 23 26 1.0 29 2.0
 24 27 1.0 29 1.0
 25
 26
 27
 28
 29

